language ESSENCE' 1.0
$ minion Nodes: 13
$ minion TotalTime: 0.124801
$ minion TimeOut: 0
$ Savile Row TotalTime: 0.153
letting a1 be 11
letting a2 be 11
letting a3 be 3
letting a4 be 3
letting a5 be 5
letting a6 be 5
letting b1 be 41
letting b2 be 41
letting b3 be 2
letting b4 be 2
letting b5 be 37
letting b6 be 37
letting c1 be 23
letting c2 be 23
letting c3 be 7
letting c4 be 7
letting c5 be 13
letting c6 be 13
letting z1 be 3
letting z2 be 2
letting z3 be 3
